(declare-fun Constructed_Argument_t () String)
(declare-fun Constructed_Argument_2_t () String)
(declare-fun Constructed_Argument_3_t () String)
(declare-fun CreateAsClass () Bool)
(declare-fun Constructed_Argument_2_elements_sync_0_t () String)
(declare-fun Constructed_Argument_2_elements_sync_1_t () String)
(declare-fun Constructed_Argument_2_elements_matchBase_2_t () String)
(declare-fun Constructed_Argument_2_elements_silent_3_t () String)
(declare-fun Constructed_Argument_2_elements_strict_4_t () String)
(declare-fun Constructed_Argument_2_elements_realpath_5_t () String)
(declare-fun Constructed_Argument_2_elements_realpathCache_6_t () String)
(declare-fun Constructed_Argument_2_elements_follow_7_t () String)
(declare-fun Constructed_Argument_2_elements_dot_8_t () String)
(declare-fun Constructed_Argument_2_elements_mark_9_t () String)
(declare-fun Constructed_Argument_2_elements_nodir_10_t () String)
(declare-fun Constructed_Argument_2_elements_sync_11_t () String)
(declare-fun Constructed_Argument_2_elements_nounique_12_t () String)
(declare-fun Constructed_Argument_2_elements_nonull_13_t () String)
(declare-fun Constructed_Argument_2_elements_nosort_14_t () String)
(declare-fun Constructed_Argument_2_elements_nocase_15_t () String)
(declare-fun Constructed_Argument_2_elements_stat_16_t () String)
(declare-fun Constructed_Argument_2_elements_noprocess_17_t () String)
(declare-fun Constructed_Argument_2_elements_absolute_18_t () String)
(declare-fun Constructed_Argument_2_elements_maxLength_19_t () String)
(declare-fun Constructed_Argument_2_elements_cache_20_t () String)
(declare-fun Constructed_Argument_2_elements_cache_20 () String)
(declare-fun Constructed_Argument_2_elements_statCache_21_t () String)
(declare-fun Constructed_Argument_2_elements_symlinks_22_t () String)
(define-funs-rec ( ( str.repeat ((x!1 String) (x!2 Int)) String)
                   ( str.whiteLeft ((x!1 String) (x!2 Int)) Int)
                   ( str.whiteRight ((x!1 String) (x!2 Int)) Int))
                 ( (ite (<= x!2 0)
                        ""
                        (str.++ x!1 ((_ str.repeat 0) x!1 (- x!2 1))))
                   (ite (= (str.at x!1 x!2) " ")
                        ((_ str.whiteLeft 0) x!1 (+ x!2 1))
                        x!2)
                   (ite (= (str.at x!1 x!2) " ")
                        ((_ str.whiteRight 0) x!1 (- x!2 1))
                        x!2)))
(assert (= Constructed_Argument_t "number"))
(assert (= Constructed_Argument_2_t "object"))
(assert (not (= Constructed_Argument_3_t "string")))
(assert (not (= Constructed_Argument_3_t "number")))
(assert (not (= Constructed_Argument_3_t "boolean")))
(assert (not (= Constructed_Argument_3_t "object")))
(assert (not (= Constructed_Argument_3_t "array_number")))
(assert (not (= Constructed_Argument_3_t "array_string")))
(assert (not (= Constructed_Argument_3_t "array_bool")))
(assert (not (= Constructed_Argument_3_t "null")))
(assert (not CreateAsClass))
(assert (not (= Constructed_Argument_2_elements_sync_0_t "string")))
(assert (not (= Constructed_Argument_2_elements_sync_0_t "number")))
(assert (not (= Constructed_Argument_2_elements_sync_0_t "boolean")))
(assert (not (= Constructed_Argument_2_elements_sync_0_t "object")))
(assert (not (= Constructed_Argument_2_elements_sync_0_t "array_number")))
(assert (not (= Constructed_Argument_2_elements_sync_0_t "array_string")))
(assert (not (= Constructed_Argument_2_elements_sync_0_t "array_bool")))
(assert (not (= Constructed_Argument_2_elements_sync_0_t "null")))
(assert (not (= Constructed_Argument_2_elements_sync_1_t "string")))
(assert (not (= Constructed_Argument_2_elements_sync_1_t "number")))
(assert (not (= Constructed_Argument_2_elements_sync_1_t "boolean")))
(assert (not (= Constructed_Argument_2_elements_sync_1_t "object")))
(assert (not (= Constructed_Argument_2_elements_sync_1_t "array_number")))
(assert (not (= Constructed_Argument_2_elements_sync_1_t "array_string")))
(assert (not (= Constructed_Argument_2_elements_sync_1_t "array_bool")))
(assert (not (= Constructed_Argument_2_elements_sync_1_t "null")))
(assert (not (= Constructed_Argument_2_elements_matchBase_2_t "string")))
(assert (not (= Constructed_Argument_2_elements_matchBase_2_t "number")))
(assert (not (= Constructed_Argument_2_elements_matchBase_2_t "boolean")))
(assert (not (= Constructed_Argument_2_elements_matchBase_2_t "object")))
(assert (not (= Constructed_Argument_2_elements_matchBase_2_t "array_number")))
(assert (not (= Constructed_Argument_2_elements_matchBase_2_t "array_string")))
(assert (not (= Constructed_Argument_2_elements_matchBase_2_t "array_bool")))
(assert (not (= Constructed_Argument_2_elements_matchBase_2_t "null")))
(assert (not (= Constructed_Argument_2_elements_silent_3_t "string")))
(assert (not (= Constructed_Argument_2_elements_silent_3_t "number")))
(assert (not (= Constructed_Argument_2_elements_silent_3_t "boolean")))
(assert (not (= Constructed_Argument_2_elements_silent_3_t "object")))
(assert (not (= Constructed_Argument_2_elements_silent_3_t "array_number")))
(assert (not (= Constructed_Argument_2_elements_silent_3_t "array_string")))
(assert (not (= Constructed_Argument_2_elements_silent_3_t "array_bool")))
(assert (not (= Constructed_Argument_2_elements_silent_3_t "null")))
(assert (not (= Constructed_Argument_2_elements_strict_4_t "string")))
(assert (not (= Constructed_Argument_2_elements_strict_4_t "number")))
(assert (not (= Constructed_Argument_2_elements_strict_4_t "boolean")))
(assert (not (= Constructed_Argument_2_elements_strict_4_t "object")))
(assert (not (= Constructed_Argument_2_elements_strict_4_t "array_number")))
(assert (not (= Constructed_Argument_2_elements_strict_4_t "array_string")))
(assert (not (= Constructed_Argument_2_elements_strict_4_t "array_bool")))
(assert (not (= Constructed_Argument_2_elements_strict_4_t "null")))
(assert (not (= Constructed_Argument_2_elements_realpath_5_t "string")))
(assert (not (= Constructed_Argument_2_elements_realpath_5_t "number")))
(assert (not (= Constructed_Argument_2_elements_realpath_5_t "boolean")))
(assert (not (= Constructed_Argument_2_elements_realpath_5_t "object")))
(assert (not (= Constructed_Argument_2_elements_realpath_5_t "array_number")))
(assert (not (= Constructed_Argument_2_elements_realpath_5_t "array_string")))
(assert (not (= Constructed_Argument_2_elements_realpath_5_t "array_bool")))
(assert (not (= Constructed_Argument_2_elements_realpath_5_t "null")))
(assert (not (= Constructed_Argument_2_elements_realpathCache_6_t "string")))
(assert (not (= Constructed_Argument_2_elements_realpathCache_6_t "number")))
(assert (not (= Constructed_Argument_2_elements_realpathCache_6_t "boolean")))
(assert (not (= Constructed_Argument_2_elements_realpathCache_6_t "object")))
(assert (not (= Constructed_Argument_2_elements_realpathCache_6_t "array_number")))
(assert (not (= Constructed_Argument_2_elements_realpathCache_6_t "array_string")))
(assert (not (= Constructed_Argument_2_elements_realpathCache_6_t "array_bool")))
(assert (not (= Constructed_Argument_2_elements_realpathCache_6_t "null")))
(assert (not (= Constructed_Argument_2_elements_follow_7_t "string")))
(assert (not (= Constructed_Argument_2_elements_follow_7_t "number")))
(assert (not (= Constructed_Argument_2_elements_follow_7_t "boolean")))
(assert (not (= Constructed_Argument_2_elements_follow_7_t "object")))
(assert (not (= Constructed_Argument_2_elements_follow_7_t "array_number")))
(assert (not (= Constructed_Argument_2_elements_follow_7_t "array_string")))
(assert (not (= Constructed_Argument_2_elements_follow_7_t "array_bool")))
(assert (not (= Constructed_Argument_2_elements_follow_7_t "null")))
(assert (not (= Constructed_Argument_2_elements_dot_8_t "string")))
(assert (not (= Constructed_Argument_2_elements_dot_8_t "number")))
(assert (not (= Constructed_Argument_2_elements_dot_8_t "boolean")))
(assert (not (= Constructed_Argument_2_elements_dot_8_t "object")))
(assert (not (= Constructed_Argument_2_elements_dot_8_t "array_number")))
(assert (not (= Constructed_Argument_2_elements_dot_8_t "array_string")))
(assert (not (= Constructed_Argument_2_elements_dot_8_t "array_bool")))
(assert (not (= Constructed_Argument_2_elements_dot_8_t "null")))
(assert (not (= Constructed_Argument_2_elements_mark_9_t "string")))
(assert (not (= Constructed_Argument_2_elements_mark_9_t "number")))
(assert (not (= Constructed_Argument_2_elements_mark_9_t "boolean")))
(assert (not (= Constructed_Argument_2_elements_mark_9_t "object")))
(assert (not (= Constructed_Argument_2_elements_mark_9_t "array_number")))
(assert (not (= Constructed_Argument_2_elements_mark_9_t "array_string")))
(assert (not (= Constructed_Argument_2_elements_mark_9_t "array_bool")))
(assert (not (= Constructed_Argument_2_elements_mark_9_t "null")))
(assert (not (= Constructed_Argument_2_elements_nodir_10_t "string")))
(assert (not (= Constructed_Argument_2_elements_nodir_10_t "number")))
(assert (not (= Constructed_Argument_2_elements_nodir_10_t "boolean")))
(assert (not (= Constructed_Argument_2_elements_nodir_10_t "object")))
(assert (not (= Constructed_Argument_2_elements_nodir_10_t "array_number")))
(assert (not (= Constructed_Argument_2_elements_nodir_10_t "array_string")))
(assert (not (= Constructed_Argument_2_elements_nodir_10_t "array_bool")))
(assert (not (= Constructed_Argument_2_elements_nodir_10_t "null")))
(assert (not (= Constructed_Argument_2_elements_sync_11_t "string")))
(assert (not (= Constructed_Argument_2_elements_sync_11_t "number")))
(assert (not (= Constructed_Argument_2_elements_sync_11_t "boolean")))
(assert (not (= Constructed_Argument_2_elements_sync_11_t "object")))
(assert (not (= Constructed_Argument_2_elements_sync_11_t "array_number")))
(assert (not (= Constructed_Argument_2_elements_sync_11_t "array_string")))
(assert (not (= Constructed_Argument_2_elements_sync_11_t "array_bool")))
(assert (not (= Constructed_Argument_2_elements_sync_11_t "null")))
(assert (not (= Constructed_Argument_2_elements_nounique_12_t "string")))
(assert (not (= Constructed_Argument_2_elements_nounique_12_t "number")))
(assert (not (= Constructed_Argument_2_elements_nounique_12_t "boolean")))
(assert (not (= Constructed_Argument_2_elements_nounique_12_t "object")))
(assert (not (= Constructed_Argument_2_elements_nounique_12_t "array_number")))
(assert (not (= Constructed_Argument_2_elements_nounique_12_t "array_string")))
(assert (not (= Constructed_Argument_2_elements_nounique_12_t "array_bool")))
(assert (not (= Constructed_Argument_2_elements_nounique_12_t "null")))
(assert (not (= Constructed_Argument_2_elements_nonull_13_t "string")))
(assert (not (= Constructed_Argument_2_elements_nonull_13_t "number")))
(assert (not (= Constructed_Argument_2_elements_nonull_13_t "boolean")))
(assert (not (= Constructed_Argument_2_elements_nonull_13_t "object")))
(assert (not (= Constructed_Argument_2_elements_nonull_13_t "array_number")))
(assert (not (= Constructed_Argument_2_elements_nonull_13_t "array_string")))
(assert (not (= Constructed_Argument_2_elements_nonull_13_t "array_bool")))
(assert (not (= Constructed_Argument_2_elements_nonull_13_t "null")))
(assert (not (= Constructed_Argument_2_elements_nosort_14_t "string")))
(assert (not (= Constructed_Argument_2_elements_nosort_14_t "number")))
(assert (not (= Constructed_Argument_2_elements_nosort_14_t "boolean")))
(assert (not (= Constructed_Argument_2_elements_nosort_14_t "object")))
(assert (not (= Constructed_Argument_2_elements_nosort_14_t "array_number")))
(assert (not (= Constructed_Argument_2_elements_nosort_14_t "array_string")))
(assert (not (= Constructed_Argument_2_elements_nosort_14_t "array_bool")))
(assert (not (= Constructed_Argument_2_elements_nosort_14_t "null")))
(assert (not (= Constructed_Argument_2_elements_nocase_15_t "string")))
(assert (not (= Constructed_Argument_2_elements_nocase_15_t "number")))
(assert (not (= Constructed_Argument_2_elements_nocase_15_t "boolean")))
(assert (not (= Constructed_Argument_2_elements_nocase_15_t "object")))
(assert (not (= Constructed_Argument_2_elements_nocase_15_t "array_number")))
(assert (not (= Constructed_Argument_2_elements_nocase_15_t "array_string")))
(assert (not (= Constructed_Argument_2_elements_nocase_15_t "array_bool")))
(assert (not (= Constructed_Argument_2_elements_nocase_15_t "null")))
(assert (not (= Constructed_Argument_2_elements_stat_16_t "string")))
(assert (not (= Constructed_Argument_2_elements_stat_16_t "number")))
(assert (not (= Constructed_Argument_2_elements_stat_16_t "boolean")))
(assert (not (= Constructed_Argument_2_elements_stat_16_t "object")))
(assert (not (= Constructed_Argument_2_elements_stat_16_t "array_number")))
(assert (not (= Constructed_Argument_2_elements_stat_16_t "array_string")))
(assert (not (= Constructed_Argument_2_elements_stat_16_t "array_bool")))
(assert (not (= Constructed_Argument_2_elements_stat_16_t "null")))
(assert (not (= Constructed_Argument_2_elements_noprocess_17_t "string")))
(assert (not (= Constructed_Argument_2_elements_noprocess_17_t "number")))
(assert (not (= Constructed_Argument_2_elements_noprocess_17_t "boolean")))
(assert (not (= Constructed_Argument_2_elements_noprocess_17_t "object")))
(assert (not (= Constructed_Argument_2_elements_noprocess_17_t "array_number")))
(assert (not (= Constructed_Argument_2_elements_noprocess_17_t "array_string")))
(assert (not (= Constructed_Argument_2_elements_noprocess_17_t "array_bool")))
(assert (not (= Constructed_Argument_2_elements_noprocess_17_t "null")))
(assert (not (= Constructed_Argument_2_elements_absolute_18_t "string")))
(assert (not (= Constructed_Argument_2_elements_absolute_18_t "number")))
(assert (not (= Constructed_Argument_2_elements_absolute_18_t "boolean")))
(assert (not (= Constructed_Argument_2_elements_absolute_18_t "object")))
(assert (not (= Constructed_Argument_2_elements_absolute_18_t "array_number")))
(assert (not (= Constructed_Argument_2_elements_absolute_18_t "array_string")))
(assert (not (= Constructed_Argument_2_elements_absolute_18_t "array_bool")))
(assert (not (= Constructed_Argument_2_elements_absolute_18_t "null")))
(assert (not (= Constructed_Argument_2_elements_maxLength_19_t "string")))
(assert (not (= Constructed_Argument_2_elements_maxLength_19_t "number")))
(assert (not (= Constructed_Argument_2_elements_maxLength_19_t "boolean")))
(assert (not (= Constructed_Argument_2_elements_maxLength_19_t "object")))
(assert (not (= Constructed_Argument_2_elements_maxLength_19_t "array_number")))
(assert (not (= Constructed_Argument_2_elements_maxLength_19_t "array_string")))
(assert (not (= Constructed_Argument_2_elements_maxLength_19_t "array_bool")))
(assert (not (= Constructed_Argument_2_elements_maxLength_19_t "null")))
(assert (= Constructed_Argument_2_elements_cache_20_t "string"))
(assert (not (= Constructed_Argument_2_elements_cache_20 "")))
(assert (not (= Constructed_Argument_2_elements_statCache_21_t "string")))
(assert (not (= Constructed_Argument_2_elements_statCache_21_t "number")))
(assert (not (= Constructed_Argument_2_elements_statCache_21_t "boolean")))
(assert (not (= Constructed_Argument_2_elements_statCache_21_t "object")))
(assert (not (= Constructed_Argument_2_elements_statCache_21_t "array_number")))
(assert (not (= Constructed_Argument_2_elements_statCache_21_t "array_string")))
(assert (not (= Constructed_Argument_2_elements_statCache_21_t "array_bool")))
(assert (not (= Constructed_Argument_2_elements_statCache_21_t "null")))
(assert (not (= Constructed_Argument_2_elements_symlinks_22_t "string")))
(assert (= Constructed_Argument_2_elements_symlinks_22_t "number"))

(check-sat)